Sat 19 May 19:13:26 CEST 2018
CPXPARAM_TimeLimit                               45
CPXPARAM_Threads                                 1
CPXPARAM_MIP_Strategy_CallbackReducedLP          0
Tried aggregator 4 times.
MIP Presolve eliminated 941 rows and 968 columns.
MIP Presolve modified 1679 coefficients.
Aggregator did 3348 substitutions.
Reduced MIP has 4786 rows, 3729 columns, and 10711 nonzeros.
Reduced MIP has 3318 binaries, 8 generals, 0 SOSs, and 523 indicators.
Presolve time = 0.04 sec. (53.10 ticks)
Found incumbent of value 15.000000 after 0.06 sec. (76.32 ticks)
Probing time = 0.07 sec. (66.25 ticks)
Cover probing fixed 0 vars, tightened 3 bounds.
Tried aggregator 3 times.
MIP Presolve modified 16 coefficients.
Aggregator did 2133 substitutions.
Reduced MIP has 2653 rows, 1596 columns, and 6445 nonzeros.
Reduced MIP has 1185 binaries, 411 generals, 0 SOSs, and 523 indicators.
Presolve time = 0.01 sec. (11.17 ticks)
Probing time = 0.02 sec. (20.66 ticks)
Tried aggregator 1 time.
Reduced MIP has 2653 rows, 1596 columns, and 6445 nonzeros.
Reduced MIP has 1185 binaries, 411 generals, 0 SOSs, and 523 indicators.
Presolve time = 0.01 sec. (5.72 ticks)
Probing time = 0.00 sec. (3.42 ticks)
Clique table members: 16376.
MIP emphasis: balance optimality and feasibility.
MIP search method: dynamic search.
Parallel mode: none, using 1 thread.
Root relaxation solution time = 0.01 sec. (11.43 ticks)

        Nodes                                         Cuts/
   Node  Left     Objective  IInf  Best Integer    Best Bound    ItCnt     Gap

*     0+    0                           15.0000        1.0000            93.33%
      0     0        1.0000   781       15.0000        1.0000      277   93.33%
      0     0        1.0000   612       15.0000  Cliques: 763      470   93.33%
      0     0        1.0000   516       15.0000  Cliques: 763      617   93.33%
      0     0        1.0000   345       15.0000  Cliques: 763      795   93.33%
      0     0        1.0000   460       15.0000     Cuts: 175     1064   93.33%
      0     0        1.0000   362       15.0000     Cuts: 241     1304   93.33%
      0     0        1.0000   353       15.0000     Cuts: 537     1342   93.33%
      0     0        1.0000   353       15.0000      Cuts: 49     1382   93.33%
*     0+    0                           10.0000        1.0000            90.00%
      0     2        1.0000   265       10.0000        1.0000     1382   90.00%
Elapsed time = 1.50 sec. (1843.28 ticks, tree = 0.01 MB, solutions = 2)
*   100+   92                            9.0000        1.0000            88.89%
*   123    97      integral     0        8.0000        1.0000     3231   87.50%
*   140    87      integral     0        7.0000        1.0000     3379   85.71%
    150    86        3.0000    72        7.0000        1.0000     3729   85.71%
*   181    62      integral     0        6.0000        1.0000     4652   83.33%
    200    63        1.0000   148        6.0000        1.0000     6484   83.33%
    232    65    infeasible              6.0000        1.0000     9711   83.33%
    273    73    infeasible              6.0000        1.0000    12311   83.33%
    305    69        2.0000   128        6.0000        2.0000    16056   66.67%
    334    56    infeasible              6.0000        2.0000    20361   66.67%
    369    39        4.0000   167        6.0000        4.0000    24872   33.33%
    428    18        5.0000   155        6.0000        5.0000    28685   16.67%
    535     7        5.0000   122        6.0000        5.0000    32581   16.67%

Clique cuts applied:  1
Implied bound cuts applied:  280
Flow cuts applied:  2
Mixed integer rounding cuts applied:  4
Zero-half cuts applied:  34

Root node processing (before b&c):
  Real time             =    1.50 sec. (1843.58 ticks)
Sequential b&c:
  Real time             =    1.90 sec. (2390.68 ticks)
                          ------------
Total (root+branch&cut) =    3.41 sec. (4234.26 ticks)
   | W
 L | 0 1 2 3 
------------
 0 | 3 3 5 5 
 1 | 3 3 5 5 
 2 | 3 3 5 5 
 3 | 6 4 4 4 
 4 | 1 4 4 4 
 5 | 1 7 2 2 
 6 | . . . . 
 7 | . . . . 
 8 | . . . . 
 9 | . . . . 
10 | . . . . 
11 | . . . . 
12 | . . . . 
13 | . . . . 
14 | . . . . 

Boxes' corners:      (w,l)
    Box 1 is at 
        top left     (0,4)
        bottom right (0,5)

    Box 2 is at 
        top left     (2,5)
        bottom right (3,5)

    Box 3 is at 
        top left     (0,0)
        bottom right (1,2)

    Box 4 is at 
        top left     (1,3)
        bottom right (3,4)

    Box 5 is at 
        top left     (2,0)
        bottom right (3,2)

    Box 6 is at 
        top left     (0,3)
        bottom right (0,3)

    Box 7 is at 
        top left     (1,5)
        bottom right (1,5)

    Roll length used: 6
In 3.42 seconds
